NAME : R104.9715.tour
COMMENT : Cost = 0_9715
COMMENT : Found by LKH [Keld Helsgaun] Wed Sep 13 18:45:47 2017
TYPE : TOUR
DIMENSION : 111
TOUR_SECTION
1
54
109
53
89
63
12
65
64
91
33
11
32
102
95
96
98
88
14
104
29
77
80
30
25
69
81
13
27
108
73
76
57
24
68
40
56
5
26
55
107
19
83
49
47
9
48
37
50
20
8
105
28
70
2
52
10
82
34
4
78
106
93
99
15
45
39
87
17
62
86
92
101
38
103
71
31
21
67
66
72
36
35
79
51
110
7
97
60
94
100
85
18
46
84
6
61
90
111
43
44
16
58
3
42
23
75
74
22
41
59
-1
EOF
